c read Graph
c width = 172
c time = 589 ms
c width = 25
c time = 709 ms
c width = 24
c time = 1040 ms
c width = 22
c time = 1941 ms
c width = 21
c time = 3594 ms
c width = 20
c time = 8243 ms
c width = 19
c time = 70110 ms
c width = 18
c time = 223384 ms
c width = 18
c time = 299904 ms
s td 806 19 916
b 1 145 902
b 2 253 902 903
b 3 57 313 456
b 4 25 455 456
b 5 239 454 455
b 6 46 395 563
b 7 309 336 901
b 8 103 900 901
b 9 38 899 900
b 10 129 898 899
b 11 213 897 898
b 12 59 896 897
b 13 291 895 896
b 14 109 894 895
b 15 91 893 894
b 16 296 892 893
b 17 364 891 892
b 18 211 890 891
b 19 403 889 890
b 20 273 888 889
b 21 17 887 888
b 22 147 886 887
b 23 156 885 886
b 24 151 884 885
b 25 126 883 884
b 26 401 882 883
b 27 84 881 882
b 28 230 880 881
b 29 402 879 880
b 30 107 878 879
b 31 386 877 878
b 32 340 876 877
b 33 311 875 876
b 34 248 874 875
b 35 144 873 874
b 36 392 872 873
b 37 410 871 872
b 38 80 870 871
b 39 223 869 870
b 40 310 868 869
b 41 143 524
b 42 132 457
b 43 281 457 458
b 44 246 564
b 45 232 494
b 46 208 422
b 47 113 517
b 48 348 517 518
b 49 202 518 519
b 50 2 519 520
b 51 56 520 521
b 52 102 611
b 53 394 611 612
b 54 116 612 613
b 55 225 613 614
b 56 100 614 615
b 57 192 615 616
b 58 54 486
b 59 415 486 487
b 60 114 487 488
b 61 22 488 489
b 62 228 489 490
b 63 367 490 491
b 64 176 491 492
b 65 35 492 493
b 66 131 148 493
b 67 1 566 567
b 68 4 719 720
b 69 5 836 837
b 70 71 483 802 803
b 71 141 636 736 737
b 72 155 751 752 915
b 73 171 525 772 773
b 74 303 707 708 904
b 75 374 859 909 910
b 76 263 372 423 424
b 77 418 425 426 427
b 78 186 427 428 429
b 79 333 436 437 438
b 80 419 452 453 610
b 81 257 264 464 465
b 82 257 264 465 466
b 83 90 467 468 470
b 84 241 470 471 473
b 85 237 473 474 477
b 86 266 478 479 482
b 87 263 372 495 496
b 88 18 526 527 540
b 89 90 540 541 543
b 90 148 543 544 559
b 91 209 295 560 561
b 92 186 257 565 566
b 93 186 257 566 567
b 94 245 568 569 571
b 95 61 575 576 577
b 96 295 581 582 583
b 97 210 587 588 589
b 98 308 589 590 591
b 99 41 597 598 600
b 100 341 601 602 603
b 101 11 604 605 606
b 102 137 606 607 608
b 103 419 452 609 610
b 104 272 636 637 639
b 105 9 639 640 648
b 106 7 648 649 650
b 107 34 650 651 655
b 108 210 655 656 658
b 109 409 658 659 677
b 110 49 677 678 688
b 111 18 688 689 707
b 112 285 708 709 718
b 113 61 718 719 726
b 114 372 726 727 729
b 115 263 729 730 736
b 116 636 736 737 749
b 117 201 749 750 751
b 118 751 752 765 915
b 119 137 765 766 772
b 120 525 772 773 802
b 121 483 802 803 811
b 122 360 811 812 822
b 123 148 822 823 826
b 124 341 826 827 835
b 125 418 835 836 844
b 126 264 844 845 850
b 127 241 850 851 856
b 128 277 856 857 858
b 129 34 905 906 907
b 130 405 907 908 909
b 131 859 909 910 911
b 132 210 912 913 914
b 133 187 419 452 516 609
b 134 187 451 452 516 609
b 135 187 451 516 608 609
b 136 187 451 516 608
b 137 137 450 451 516 608
b 138 189 256 446 447 448
b 139 61 189 256 445 446 448
b 140 61 137 189 256 445 448 449 512 603
b 141 61 137 189 256 449 512 515 603
b 142 61 189 256 512 513 515
b 143 189 256 513 514 515
b 144 137 189 449 515 603 604
b 145 137 449 450 515 604 606
b 146 137 450 515 606 608
b 147 137 450 515 516 608
b 148 11 449 450 604 606
b 149 61 137 256 445 448 449 512 603 639 648
b 150 61 137 256 445 512 575 578 603 639 648
b 151 61 256 575 577 578
b 152 61 137 277 285 443 445 512 575 578 603 639 648
b 153 277 285 443 444 445
b 154 61 137 277 285 443 510 512 574 575 578 603 639 648 650 655 858 859 905 907
b 155 61 137 277 285 443 510 573 574 575 578 603 639 648 650 655 858 859 905 907
b 156 61 137 277 285 443 510 572 573 575 578 603 639 648 650 655 858 859 905 907
b 157 61 137 277 285 443 510 572 578 603 639 648 650 655 707 726 858 859 905 907
b 158 137 277 285 443 510 572 578 603 639 648 650 655 707 726 856 858 859 905 907
b 159 137 443 510 572 578 584 585 603 639 648 650 655 707 726 856 858 859 905 907
b 160 137 210 443 510 572 578 584 585 603 639 655 658 707 726 856 858 859 905 907
b 161 137 210 409 443 510 572 578 584 585 603 639 658 677 707 726 856 859 905 907
b 162 137 210 409 443 510 572 578 584 585 603 639 677 707 726 856 859 907 909 911
b 163 137 210 405 409 443 510 572 578 584 585 603 639 677 707 726 856 907 909 911
b 164 137 210 405 409 443 510 572 578 584 585 603 639 677 688 707 726 856 911 912
b 165 137 210 405 409 443 510 572 578 584 585 603 639 688 707 726 856 912 914
b 166 137 210 405 409 443 510 572 578 584 585 603 636 639 688 707 726 856 914 915
b 167 137 210 405 409 443 510 572 578 584 585 603 636 688 707 726 751 772 856 915
b 168 137 751 765 772 915
b 169 201 210 405 409 443 510 572 578 584 585 603 636 688 707 726 736 751 772 856
b 170 201 210 263 372 405 409 443 510 572 578 584 585 603 688 707 726 736 772 856
b 171 201 210 263 372 405 409 443 510 572 578 583 584 585 603 688 707 772 856
b 172 18 201 210 263 372 405 409 443 510 572 578 583 585 603 688 707 772 856
b 173 18 201 210 263 372 405 409 425 443 497 510 572 578 583 585 603 772 856
b 174 18 201 210 405 409 425 443 473 483 497 510 559 572 578 583 585 603 772 856
b 175 18 201 210 405 409 425 443 473 483 497 510 525 559 572 585 603 772 811 856
b 176 18 201 210 405 409 425 443 473 497 510 525 559 572 585 586 603 811 822 856
b 177 360 585 586 811 822
b 178 483 525 772 802 811
b 179 473 477 483 559 578 579 583
b 180 477 478 483 559 560 579 583
b 181 27 477 478 559 560
b 182 295 478 483 560 579 580 583
b 183 209 295 560 579 580
b 184 266 295 478 483 580 583
b 185 266 295 478 482 483
b 186 266 295 580 581 583
b 187 237 473 477 578 579
b 188 183 263 372 425 497
b 189 183 263 372 424 425
b 190 183 263 372 496 497
b 191 263 372 726 729 736
b 192 201 636 736 749 751
b 193 272 636 639 914 915
b 194 49 677 688 911 912
b 195 7 584 585 648 650
b 196 61 277 285 707 718 726 905
b 197 277 285 707 718 904 905
b 198 285 707 708 718 904
b 199 34 574 575 650 655 858 859 905 907
b 200 277 285 510 511 512
b 201 29 574 575 858 859
b 202 9 448 449 639 648
b 203 18 201 210 405 409 425 443 473 497 510 525 526 540 559 572 586 603 822 856
b 204 201 210 257 405 409 425 443 473 497 510 525 526 540 559 572 586 603 822 856
b 205 201 210 257 405 409 425 443 473 497 510 540 559 572 586 587 589 603 822 856
b 206 201 257 331 405 409 425 443 473 497 510 540 559 572 586 587 589 603 822 856
b 207 201 241 257 331 405 409 425 443 470 473 497 510 540 559 572 589 603 822 856
b 208 201 241 257 331 405 409 425 443 470 497 510 540 559 572 589 603 822 850 856
b 209 90 201 257 331 405 409 425 443 467 470 497 510 540 559 572 589 603 822 850
b 210 90 201 257 331 405 409 425 443 467 497 510 540 543 559 572 589 603 822 850
b 211 201 257 331 405 409 418 425 427 443 467 497 510 543 559 572 589 603 822 850
b 212 148 201 257 331 405 409 418 427 443 467 497 510 543 559 572 589 603 822 850
b 213 148 201 257 331 405 409 418 427 443 467 497 510 572 589 603 822 835 844 850
b 214 148 201 257 331 405 409 427 443 467 497 510 572 589 603 822 826 835 844 850
b 215 148 201 257 331 405 409 427 443 467 497 510 572 589 601 603 826 835 844 850
b 216 148 201 257 264 331 405 409 427 443 466 467 497 510 572 589 601 835 844 850
b 217 148 201 257 258 331 405 409 427 443 466 467 497 510 572 589 601 835 844 850
b 218 148 186 201 257 258 331 405 409 427 443 497 510 567 572 589 601 835 844 850
b 219 148 186 201 258 331 405 409 427 429 443 497 510 567 572 589 601 835 844 850
b 220 148 186 201 258 331 405 409 429 443 497 498 510 567 572 589 601 835 844 850
b 221 148 201 258 331 405 409 429 430 443 497 498 510 567 572 589 601 835 844 850
b 222 148 201 258 331 405 409 430 431 443 497 498 510 567 572 589 601 835 844 850
b 223 148 201 258 331 405 409 431 443 498 510 567 572 589 594 595 601 835 844 850
b 224 148 201 331 405 409 431 443 498 499 510 567 572 589 594 595 601 835 844 850
b 225 148 201 331 405 409 431 443 499 500 510 567 572 589 594 595 601 835 844 850
b 226 148 201 405 409 431 443 499 500 510 567 568 572 589 594 595 601 835 844 850
b 227 148 201 308 409 431 432 443 500 510 567 568 572 589 594 595 601 835 844 850
b 228 148 201 308 409 432 443 500 501 510 567 568 572 589 594 595 601 835 844 850
b 229 148 201 308 409 432 443 501 510 567 568 572 589 591 594 595 601 835 844 850
b 230 148 201 245 409 432 433 443 501 510 568 572 589 591 594 595 601 835 844 850
b 231 148 201 245 409 433 434 443 501 510 568 572 589 591 594 595 601 835 844 850
b 232 148 201 245 409 434 443 501 502 510 568 572 589 591 594 595 601 835 844 850
b 233 148 201 245 409 434 443 502 510 568 571 572 589 591 594 595 601 835 844 850
b 234 148 201 409 434 443 502 503 510 568 571 572 589 591 594 595 601 835 844 850
b 235 148 201 409 434 443 503 510 568 571 572 589 591 592 594 595 601 835 844 850
b 236 148 198 201 434 435 443 503 510 571 572 589 591 592 594 595 601 835 844 850
b 237 148 198 201 435 443 503 504 510 571 572 589 591 592 594 595 601 835 844 850
b 238 148 198 201 435 443 504 510 571 572 589 591 592 593 594 595 601 835 844 850
b 239 148 201 333 435 443 504 510 571 572 589 591 592 593 594 595 601 835 844 850
b 240 148 188 201 333 435 436 443 504 510 589 591 592 593 594 595 601 835 844 850
b 241 148 188 201 333 436 443 504 505 510 589 591 592 593 594 595 601 835 844 850
b 242 93 148 201 333 436 442 443 505 510 589 591 592 593 594 595 601 835 844 850
b 243 41 93 148 201 333 436 440 442 505 510 591 592 593 594 595 601 835 844 850
b 244 41 93 148 201 436 440 442 505 510 591 592 593 594 595 600 601 835 844 850
b 245 41 148 201 436 440 442 505 510 591 592 593 594 595 597 600 601 835 844 850
b 246 148 201 436 440 442 505 510 591 592 593 594 595 596 597 600 601 835 844 850
b 247 341 601 603 826 835
b 248 41 148 440 441 442
b 249 41 93 201 333 436 440 505 508 510
b 250 41 93 508 509 510
b 251 201 333 436 440 505 507 508
b 252 201 333 436 439 440 507 508
b 253 83 439 440 507 508
b 254 201 333 436 438 439
b 255 201 333 505 506 507
b 256 298 913 914
b 257 420 910 911
b 258 297 908 909
b 259 325 906 907
b 260 63 857 858
b 261 355 855 856
b 262 851 855 856
b 263 214 854 855
b 264 851 854 855
b 265 261 853 854
b 266 851 853 854
b 267 150 852 853
b 268 851 852 853
b 269 39 851 852
b 270 220 849 850
b 271 845 849 850
b 272 286 848 849
b 273 845 848 849
b 274 47 847 848
b 275 845 847 848
b 276 135 846 847
b 277 845 846 847
b 278 328 845 846
b 279 128 843 844
b 280 836 843 844
b 281 180 842 843
b 282 836 842 843
b 283 99 841 842
b 284 836 841 842
b 285 212 840 841
b 286 836 840 841
b 287 82 839 840
b 288 836 839 840
b 289 123 838 839
b 290 836 838 839
b 291 412 837 838
b 292 836 837 838
b 293 26 834 835
b 294 827 834 835
b 295 293 833 834
b 296 827 833 834
b 297 417 832 833
b 298 827 832 833
b 299 347 831 832
b 300 827 831 832
b 301 235 830 831
b 302 827 830 831
b 303 382 829 830
b 304 827 829 830
b 305 391 828 829
b 306 827 828 829
b 307 302 827 828
b 308 375 825 826
b 309 823 825 826
b 310 369 824 825
b 311 823 824 825
b 312 105 823 824
b 313 40 821 822
b 314 812 821 822
b 315 185 820 821
b 316 812 820 821
b 317 361 819 820
b 318 812 819 820
b 319 115 818 819
b 320 812 818 819
b 321 182 817 818
b 322 812 817 818
b 323 334 816 817
b 324 812 816 817
b 325 31 815 816
b 326 812 815 816
b 327 33 814 815
b 328 812 814 815
b 329 78 813 814
b 330 812 813 814
b 331 350 812 813
b 332 275 810 811
b 333 803 810 811
b 334 359 809 810
b 335 803 809 810
b 336 136 808 809
b 337 803 808 809
b 338 65 807 808
b 339 803 807 808
b 340 301 806 807
b 341 803 806 807
b 342 194 805 806
b 343 803 805 806
b 344 140 804 805
b 345 803 804 805
b 346 110 803 804
b 347 217 801 802
b 348 773 801 802
b 349 396 800 801
b 350 773 800 801
b 351 279 799 800
b 352 773 799 800
b 353 104 798 799
b 354 773 798 799
b 355 74 797 798
b 356 773 797 798
b 357 280 796 797
b 358 773 796 797
b 359 243 795 796
b 360 773 795 796
b 361 388 794 795
b 362 773 794 795
b 363 98 793 794
b 364 773 793 794
b 365 124 792 793
b 366 773 792 793
b 367 260 791 792
b 368 773 791 792
b 369 85 790 791
b 370 773 790 791
b 371 362 789 790
b 372 773 789 790
b 373 139 788 789
b 374 773 788 789
b 375 284 787 788
b 376 773 787 788
b 377 271 786 787
b 378 773 786 787
b 379 16 785 786
b 380 773 785 786
b 381 357 784 785
b 382 773 784 785
b 383 15 783 784
b 384 773 783 784
b 385 236 782 783
b 386 773 782 783
b 387 407 781 782
b 388 773 781 782
b 389 51 780 781
b 390 773 780 781
b 391 72 779 780
b 392 773 779 780
b 393 383 778 779
b 394 773 778 779
b 395 173 777 778
b 396 773 777 778
b 397 421 776 777
b 398 773 776 777
b 399 269 775 776
b 400 773 775 776
b 401 294 774 775
b 402 773 774 775
b 403 179 773 774
b 404 373 771 772
b 405 766 771 772
b 406 381 770 771
b 407 766 770 771
b 408 312 769 770
b 409 766 769 770
b 410 219 768 769
b 411 766 768 769
b 412 21 767 768
b 413 766 767 768
b 414 69 766 767
b 415 68 764 765
b 416 752 764 765
b 417 319 763 764
b 418 752 763 764
b 419 166 762 763
b 420 752 762 763
b 421 111 761 762
b 422 752 761 762
b 423 160 760 761
b 424 752 760 761
b 425 149 759 760
b 426 752 759 760
b 427 276 758 759
b 428 752 758 759
b 429 58 757 758
b 430 752 757 758
b 431 329 756 757
b 432 752 756 757
b 433 45 755 756
b 434 752 755 756
b 435 158 754 755
b 436 752 754 755
b 437 343 753 754
b 438 752 753 754
b 439 122 752 753
b 440 14 750 751
b 441 172 748 749
b 442 737 748 749
b 443 292 747 748
b 444 737 747 748
b 445 86 746 747
b 446 737 746 747
b 447 42 745 746
b 448 737 745 746
b 449 366 744 745
b 450 737 744 745
b 451 92 743 744
b 452 737 743 744
b 453 62 742 743
b 454 737 742 743
b 455 380 741 742
b 456 737 741 742
b 457 346 740 741
b 458 737 740 741
b 459 50 739 740
b 460 737 739 740
b 461 215 738 739
b 462 737 738 739
b 463 339 737 738
b 464 30 735 736
b 465 730 735 736
b 466 229 734 735
b 467 730 734 735
b 468 234 733 734
b 469 730 733 734
b 470 365 732 733
b 471 730 732 733
b 472 321 731 732
b 473 730 731 732
b 474 10 730 731
b 475 66 728 729
b 476 727 728 729
b 477 416 727 728
b 478 130 725 726
b 479 719 725 726
b 480 377 724 725
b 481 719 724 725
b 482 406 723 724
b 483 719 723 724
b 484 332 722 723
b 485 719 722 723
b 486 408 721 722
b 487 719 721 722
b 488 175 720 721
b 489 719 720 721
b 490 322 717 718
b 491 709 717 718
b 492 231 716 717
b 493 709 716 717
b 494 242 715 716
b 495 709 715 716
b 496 342 714 715
b 497 709 714 715
b 498 222 713 714
b 499 709 713 714
b 500 87 712 713
b 501 709 712 713
b 502 205 711 712
b 503 709 711 712
b 504 255 710 711
b 505 709 710 711
b 506 169 709 710
b 507 315 706 707
b 508 689 706 707
b 509 146 705 706
b 510 689 705 706
b 511 76 704 705
b 512 689 704 705
b 513 177 703 704
b 514 689 703 704
b 515 170 702 703
b 516 689 702 703
b 517 96 701 702
b 518 689 701 702
b 519 118 700 701
b 520 689 700 701
b 521 304 699 700
b 522 689 699 700
b 523 305 698 699
b 524 689 698 699
b 525 79 697 698
b 526 689 697 698
b 527 106 696 697
b 528 689 696 697
b 529 174 695 696
b 530 689 695 696
b 531 142 694 695
b 532 689 694 695
b 533 161 693 694
b 534 689 693 694
b 535 411 692 693
b 536 689 692 693
b 537 134 691 692
b 538 689 691 692
b 539 318 690 691
b 540 689 690 691
b 541 238 689 690
b 542 207 687 688
b 543 678 687 688
b 544 197 686 687
b 545 678 686 687
b 546 262 685 686
b 547 678 685 686
b 548 356 684 685
b 549 678 684 685
b 550 330 683 684
b 551 678 683 684
b 552 6 682 683
b 553 678 682 683
b 554 190 681 682
b 555 678 681 682
b 556 282 680 681
b 557 678 680 681
b 558 24 679 680
b 559 678 679 680
b 560 70 678 679
b 561 413 676 677
b 562 659 676 677
b 563 252 675 676
b 564 659 675 676
b 565 199 674 675
b 566 659 674 675
b 567 60 673 674
b 568 659 673 674
b 569 125 672 673
b 570 659 672 673
b 571 154 671 672
b 572 659 671 672
b 573 133 670 671
b 574 659 670 671
b 575 327 669 670
b 576 659 669 670
b 577 157 668 669
b 578 659 668 669
b 579 94 667 668
b 580 659 667 668
b 581 167 666 667
b 582 659 666 667
b 583 287 665 666
b 584 659 665 666
b 585 216 664 665
b 586 659 664 665
b 587 320 663 664
b 588 659 663 664
b 589 178 662 663
b 590 659 662 663
b 591 23 661 662
b 592 659 661 662
b 593 191 660 661
b 594 659 660 661
b 595 306 659 660
b 596 153 657 658
b 597 656 657 658
b 598 385 656 657
b 599 399 654 655
b 600 651 654 655
b 601 251 653 654
b 602 651 653 654
b 603 119 652 653
b 604 651 652 653
b 605 379 651 652
b 606 162 649 650
b 607 390 647 648
b 608 640 647 648
b 609 37 646 647
b 610 640 646 647
b 611 43 645 646
b 612 640 645 646
b 613 398 644 645
b 614 640 644 645
b 615 247 643 644
b 616 640 643 644
b 617 64 642 643
b 618 640 642 643
b 619 326 641 642
b 620 640 641 642
b 621 152 640 641
b 622 127 638 639
b 623 637 638 639
b 624 13 637 638
b 625 121 607 608
b 626 159 605 606
b 627 378 602 603
b 628 337 599 600
b 629 598 599 600
b 630 376 598 599
b 631 120 590 591
b 632 75 588 589
b 633 249 582 583
b 634 335 576 577
b 635 112 570 571
b 636 569 570 571
b 637 250 569 570
b 638 117 558 559
b 639 544 558 559
b 640 349 557 558
b 641 544 557 558
b 642 323 556 557
b 643 544 556 557
b 644 368 555 556
b 645 544 555 556
b 646 81 554 555
b 647 544 554 555
b 648 181 553 554
b 649 544 553 554
b 650 370 552 553
b 651 544 552 553
b 652 351 551 552
b 653 544 551 552
b 654 28 550 551
b 655 544 550 551
b 656 101 549 550
b 657 544 549 550
b 658 397 548 549
b 659 544 548 549
b 660 314 547 548
b 661 544 547 548
b 662 55 546 547
b 663 544 546 547
b 664 32 545 546
b 665 544 545 546
b 666 270 544 545
b 667 163 542 543
b 668 541 542 543
b 669 12 541 542
b 670 226 539 540
b 671 527 539 540
b 672 53 538 539
b 673 527 538 539
b 674 254 537 538
b 675 527 537 538
b 676 244 536 537
b 677 527 536 537
b 678 363 535 536
b 679 527 535 536
b 680 300 534 535
b 681 527 534 535
b 682 8 533 534
b 683 527 533 534
b 684 389 532 533
b 685 527 532 533
b 686 387 531 532
b 687 527 531 532
b 688 164 530 531
b 689 527 530 531
b 690 353 529 530
b 691 527 529 530
b 692 73 528 529
b 693 527 528 529
b 694 352 527 528
b 695 206 481 482
b 696 479 481 482
b 697 288 480 481
b 698 479 480 481
b 699 324 479 480
b 700 196 476 477
b 701 474 476 477
b 702 400 475 476
b 703 474 475 476
b 704 203 474 475
b 705 307 472 473
b 706 471 472 473
b 707 77 471 472
b 708 354 469 470
b 709 468 469 470
b 710 218 468 469
b 711 52 465 466
b 712 165 453 610
b 713 316 437 438
b 714 283 428 429
b 715 184 426 427
b 716 19 860 861
b 717 374 860 861
b 718 20 864 865
b 719 374 864 865
b 720 267 866 867
b 721 374 866 867
b 722 374 867 868
b 723 344 865 866
b 724 374 865 866
b 725 240 863 864
b 726 374 863 864
b 727 204 862 863
b 728 374 862 863
b 729 233 861 862
b 730 374 861 862
b 731 48 859 860
b 732 374 859 860
b 733 372 494 495
b 734 372 422 423
b 735 303 903 904
b 736 295 561 562
b 737 384 561 562
b 738 295 562 563
b 739 257 564 565
b 740 89 463 464
b 741 257 463 464
b 742 257 462 463
b 743 345 462 463
b 744 193 461 462
b 745 257 461 462
b 746 257 460 461
b 747 289 460 461
b 748 195 459 460
b 749 257 459 460
b 750 257 458 459
b 751 171 524 525
b 752 165 358 610
b 753 165 453 454
b 754 108 155 916
b 755 155 915 916
b 756 168 915 916
b 757 141 635 636
b 758 224 635 636
b 759 141 634 635
b 760 338 634 635
b 761 95 633 634
b 762 141 633 634
b 763 141 632 633
b 764 274 632 633
b 765 138 631 632
b 766 141 631 632
b 767 141 630 631
b 768 414 630 631
b 769 36 629 630
b 770 141 629 630
b 771 141 628 629
b 772 278 628 629
b 773 141 627 628
b 774 371 627 628
b 775 141 626 627
b 776 259 626 627
b 777 3 625 626
b 778 141 625 626
b 779 141 624 625
b 780 265 624 625
b 781 88 623 624
b 782 141 623 624
b 783 97 622 623
b 784 141 622 623
b 785 141 621 622
b 786 299 621 622
b 787 141 620 621
b 788 290 620 621
b 789 141 619 620
b 790 393 619 620
b 791 67 618 619
b 792 141 618 619
b 793 141 617 618
b 794 404 617 618
b 795 141 268 617
b 796 268 616 617
b 797 44 522 523
b 798 141 522 523
b 799 141 227 523
b 800 141 268 522
b 801 268 521 522
b 802 71 484 485
b 803 200 484 485
b 804 71 317 485
b 805 71 483 484
b 806 221 483 484
1 2
2 735
3 4
4 5
5 753
6 738
7 8
8 9
9 10
10 11
11 12
12 13
13 14
14 15
15 16
16 17
17 18
18 19
19 20
20 21
21 22
22 23
23 24
24 25
25 26
26 27
27 28
28 29
29 30
30 31
31 32
32 33
33 34
34 35
35 36
36 37
37 38
38 39
39 40
40 722
41 751
42 43
43 750
44 739
45 733
46 734
47 48
48 49
49 50
50 51
51 801
52 53
53 54
54 55
55 56
56 57
57 796
58 59
59 60
60 61
61 62
62 63
63 64
64 65
65 66
66 90
67 93
68 489
69 292
70 805
70 121
71 757
71 116
72 755
72 118
73 751
73 120
74 735
74 198
75 732
75 131
76 734
76 189
77 715
77 211
78 714
78 219
79 713
79 254
80 712
80 103
81 741
81 82
82 711
82 216
83 709
83 209
84 706
84 207
85 701
85 187
86 696
86 185
87 733
87 190
88 671
88 203
89 668
89 210
90 639
90 212
91 736
91 183
92 739
92 93
93 218
94 636
94 233
95 634
95 151
96 633
96 186
97 632
97 205
98 631
98 229
99 629
99 245
100 627
100 247
101 626
101 148
102 625
102 146
103 133
104 623
104 193
105 608
105 202
106 606
106 195
107 600
107 199
108 597
108 160
109 562
109 161
110 543
110 194
111 508
111 172
112 491
112 198
113 479
113 196
114 476
114 191
115 465
115 191
116 442
116 192
117 440
117 192
118 416
118 168
119 405
119 168
120 348
120 178
121 333
121 178
122 314
122 177
123 309
123 214
124 294
124 247
125 280
125 213
126 271
126 216
127 262
127 208
128 260
128 158
129 259
129 199
130 258
130 163
131 257
131 162
132 256
132 165
133 134
134 135
135 136
136 137
137 147
138 139
139 140
140 149
140 141
141 144
141 142
142 143
144 145
145 148
145 146
146 147
149 202
149 150
150 152
150 151
152 154
152 153
154 199
154 200
154 201
154 155
155 156
156 157
157 196
157 158
158 159
159 195
159 160
160 161
161 162
162 163
163 164
164 194
164 165
165 166
166 193
166 167
167 169
167 168
169 192
169 170
170 191
170 171
171 172
172 173
173 188
173 174
174 179
174 175
175 178
175 176
176 203
176 177
179 187
179 180
180 182
180 181
182 183
182 184
184 185
184 186
188 190
188 189
196 197
197 198
203 204
204 205
205 206
206 207
207 208
208 209
209 210
210 211
211 212
212 213
213 214
214 215
215 247
215 216
216 217
217 218
218 219
219 220
220 221
221 222
222 223
223 224
224 225
225 226
226 227
227 228
228 229
229 230
230 231
231 232
232 233
233 234
234 235
235 236
236 237
237 238
238 239
239 240
240 241
241 242
242 243
243 248
243 249
243 244
244 245
245 246
249 250
249 251
251 252
251 255
252 253
252 254
261 262
262 264
263 264
264 266
265 266
266 268
267 268
268 269
270 271
271 273
272 273
273 275
274 275
275 277
276 277
277 278
279 280
280 282
281 282
282 284
283 284
284 286
285 286
286 288
287 288
288 290
289 290
290 292
291 292
293 294
294 296
295 296
296 298
297 298
298 300
299 300
300 302
301 302
302 304
303 304
304 306
305 306
306 307
308 309
309 311
310 311
311 312
313 314
314 316
315 316
316 318
317 318
318 320
319 320
320 322
321 322
322 324
323 324
324 326
325 326
326 328
327 328
328 330
329 330
330 331
332 333
333 335
334 335
335 337
336 337
337 339
338 339
339 341
340 341
341 343
342 343
343 345
344 345
345 346
347 348
348 350
349 350
350 352
351 352
352 354
353 354
354 356
355 356
356 358
357 358
358 360
359 360
360 362
361 362
362 364
363 364
364 366
365 366
366 368
367 368
368 370
369 370
370 372
371 372
372 374
373 374
374 376
375 376
376 378
377 378
378 380
379 380
380 382
381 382
382 384
383 384
384 386
385 386
386 388
387 388
388 390
389 390
390 392
391 392
392 394
393 394
394 396
395 396
396 398
397 398
398 400
399 400
400 402
401 402
402 403
404 405
405 407
406 407
407 409
408 409
409 411
410 411
411 413
412 413
413 414
415 416
416 418
417 418
418 420
419 420
420 422
421 422
422 424
423 424
424 426
425 426
426 428
427 428
428 430
429 430
430 432
431 432
432 434
433 434
434 436
435 436
436 438
437 438
438 439
441 442
442 444
443 444
444 446
445 446
446 448
447 448
448 450
449 450
450 452
451 452
452 454
453 454
454 456
455 456
456 458
457 458
458 460
459 460
460 462
461 462
462 463
464 465
465 467
466 467
467 469
468 469
469 471
470 471
471 473
472 473
473 474
475 476
476 477
478 479
479 481
480 481
481 483
482 483
483 485
484 485
485 487
486 487
487 489
488 489
490 491
491 493
492 493
493 495
494 495
495 497
496 497
497 499
498 499
499 501
500 501
501 503
502 503
503 505
504 505
505 506
507 508
508 510
509 510
510 512
511 512
512 514
513 514
514 516
515 516
516 518
517 518
518 520
519 520
520 522
521 522
522 524
523 524
524 526
525 526
526 528
527 528
528 530
529 530
530 532
531 532
532 534
533 534
534 536
535 536
536 538
537 538
538 540
539 540
540 541
542 543
543 545
544 545
545 547
546 547
547 549
548 549
549 551
550 551
551 553
552 553
553 555
554 555
555 557
556 557
557 559
558 559
559 560
561 562
562 564
563 564
564 566
565 566
566 568
567 568
568 570
569 570
570 572
571 572
572 574
573 574
574 576
575 576
576 578
577 578
578 580
579 580
580 582
581 582
582 584
583 584
584 586
585 586
586 588
587 588
588 590
589 590
590 592
591 592
592 594
593 594
594 595
596 597
597 598
599 600
600 602
601 602
602 604
603 604
604 605
607 608
608 610
609 610
610 612
611 612
612 614
613 614
614 616
615 616
616 618
617 618
618 620
619 620
620 621
622 623
623 624
628 629
629 630
635 636
636 637
638 639
639 641
640 641
641 643
642 643
643 645
644 645
645 647
646 647
647 649
648 649
649 651
650 651
651 653
652 653
653 655
654 655
655 657
656 657
657 659
658 659
659 661
660 661
661 663
662 663
663 665
664 665
665 666
667 668
668 669
670 671
671 673
672 673
673 675
674 675
675 677
676 677
677 679
678 679
679 681
680 681
681 683
682 683
683 685
684 685
685 687
686 687
687 689
688 689
689 691
690 691
691 693
692 693
693 694
695 696
696 698
697 698
698 699
700 701
701 703
702 703
703 704
705 706
706 707
708 709
709 710
712 753
712 752
716 717
717 732
717 730
718 719
719 726
719 724
720 721
721 724
721 722
723 724
725 726
726 728
727 728
728 730
729 730
731 732
736 738
736 737
740 741
741 742
742 745
742 743
744 745
745 746
746 749
746 747
748 749
749 750
754 755
755 756
757 759
757 758
759 762
759 760
761 762
762 763
763 766
763 764
765 766
766 767
767 770
767 768
769 770
770 771
771 773
771 772
773 775
773 774
775 778
775 776
777 778
778 779
779 782
779 780
781 782
782 784
783 784
784 785
785 787
785 786
787 789
787 788
789 792
789 790
791 792
792 793
793 795
793 794
795 800
795 796
797 798
798 800
798 799
800 801
802 805
802 804
802 803
805 806
